NAME : mtspf.pid4051.gtsp.241492049.tour
COMMENT : Length = 241492049
COMMENT : Found by LKH [Keld Helsgaun] Sat Feb  8 23:44:05 2025
TYPE : TOUR
DIMENSION : 135
TOUR_SECTION
1
49
50
51
48
104
105
106
107
101
102
103
100
6
23
20
21
22
135
132
133
134
72
73
74
75
83
80
81
82
119
116
117
118
30
31
28
29
85
86
87
84
14
25
26
27
24
96
97
98
99
5
3
2
8
9
110
111
108
109
37
38
39
36
66
67
64
65
54
55
52
53
63
60
61
62
19
16
17
18
13
11
10
59
56
57
58
45
46
47
44
7
70
71
68
69
114
115
112
113
128
129
130
131
124
125
126
127
4
90
91
88
89
77
78
79
76
32
33
34
35
95
92
93
94
12
122
123
120
121
42
43
40
41
15
-1
EOF
